%%%mzn-stat: initTime=0.040339344
%%%mzn-stat: objective=217
%%%mzn-stat: nodes=808619
%%%mzn-stat: restarts=176
%%%mzn-stat: peakDepth=1029
%%%mzn-stat: solveTime=228.694104223
%%%mzn-stat: variables=1822
%%%mzn-stat: propagators=6402
%%%mzn-stat: failures=575869
%%%mzn-stat: propagations=244611156
%%%mzn-stat: nogoods=575869
%%%mzn-stat: AverageConflictSize=22.793937510093443
%%%mzn-stat: NumUnitNogoodsLearned=175
%%%mzn-stat: AverageLearnedNogoodLength=66.6351704988461
%%%mzn-stat: AverageBacktrackAmount=0
%%%mzn-stat: AverageLbd=18.97095172686844
%%%mzn-stat-end
maxleg = 217;
succ = array1d(1..100,[57, 80, 74, 92, 12, 9, 63, 28, 59, 1, 33, 40, 44, 24, 11, 58, 42, 77, 91, 16, 10, 89, 85, 7, 38, 41, 82, 19, 53, 48, 49, 87, 65, 45, 43, 64, 47, 8, 94, 73, 25, 98, 5, 20, 14, 84, 56, 78, 13, 76, 29, 62, 95, 6, 17, 39, 26, 67, 79, 88, 86, 61, 54, 69, 3, 34, 100, 30, 46, 4, 18, 97, 99, 32, 2, 15, 90, 75, 71, 23, 51, 36, 21, 81, 66, 31, 55, 37, 68, 96, 52, 83, 35, 70, 22, 93, 27, 72, 60, 50]);
% time elapsed: 232.04 s
----------
%%%mzn-stat: initTime=0.040339344
%%%mzn-stat: objective=212
%%%mzn-stat: nodes=818715
%%%mzn-stat: restarts=181
%%%mzn-stat: peakDepth=1089
%%%mzn-stat: solveTime=231.164337381
%%%mzn-stat: variables=1822
%%%mzn-stat: propagators=6402
%%%mzn-stat: failures=581695
%%%mzn-stat: propagations=246813763
%%%mzn-stat: nogoods=581695
%%%mzn-stat: AverageConflictSize=22.782074798648775
%%%mzn-stat: NumUnitNogoodsLearned=175
%%%mzn-stat: AverageLearnedNogoodLength=66.55191638229657
%%%mzn-stat: AverageBacktrackAmount=0
%%%mzn-stat: AverageLbd=18.928194328643016
%%%mzn-stat-end
maxleg = 212;
succ = array1d(1..100,[57, 80, 74, 92, 12, 9, 63, 28, 59, 1, 33, 40, 44, 24, 11, 58, 42, 77, 91, 16, 10, 89, 85, 7, 38, 35, 82, 19, 53, 48, 49, 87, 65, 45, 43, 64, 39, 8, 86, 73, 25, 98, 5, 20, 14, 84, 56, 78, 13, 76, 29, 62, 95, 6, 17, 94, 26, 67, 79, 88, 47, 61, 54, 69, 3, 34, 100, 30, 46, 4, 18, 97, 99, 32, 2, 15, 90, 75, 71, 23, 51, 36, 21, 81, 66, 31, 55, 37, 68, 96, 52, 83, 41, 70, 22, 93, 27, 72, 60, 50]);
% time elapsed: 234.51 s
----------
%%%mzn-stat: initTime=0.040339344
%%%mzn-stat: objective=210
%%%mzn-stat: nodes=819969
%%%mzn-stat: restarts=182
%%%mzn-stat: peakDepth=1089
%%%mzn-stat: solveTime=231.202221917
%%%mzn-stat: variables=1822
%%%mzn-stat: propagators=6402
%%%mzn-stat: failures=581710
%%%mzn-stat: propagations=246839233
%%%mzn-stat: nogoods=581710
%%%mzn-stat: AverageConflictSize=22.78210276598305
%%%mzn-stat: NumUnitNogoodsLearned=175
%%%mzn-stat: AverageLearnedNogoodLength=66.5514053394303
%%%mzn-stat: AverageBacktrackAmount=0
%%%mzn-stat: AverageLbd=18.928141169998796
%%%mzn-stat-end
maxleg = 210;
succ = array1d(1..100,[57, 80, 74, 92, 12, 9, 63, 28, 59, 1, 33, 40, 44, 24, 11, 58, 42, 77, 91, 15, 10, 89, 85, 7, 38, 35, 82, 19, 53, 48, 76, 87, 16, 45, 43, 64, 39, 8, 86, 73, 25, 98, 5, 20, 14, 84, 56, 78, 13, 65, 29, 62, 95, 6, 17, 94, 26, 67, 79, 88, 47, 61, 54, 69, 3, 34, 100, 30, 46, 4, 18, 97, 99, 32, 2, 49, 90, 75, 71, 23, 51, 36, 21, 81, 66, 31, 55, 37, 68, 96, 52, 83, 41, 70, 22, 93, 27, 72, 60, 50]);
% time elapsed: 234.55 s
----------
%%%mzn-stat: initTime=0.040339344
%%%mzn-stat: objective=207
%%%mzn-stat: nodes=905634
%%%mzn-stat: restarts=184
%%%mzn-stat: peakDepth=1089
%%%mzn-stat: solveTime=273.058315303
%%%mzn-stat: variables=1822
%%%mzn-stat: propagators=6402
%%%mzn-stat: failures=658564
%%%mzn-stat: propagations=288313170
%%%mzn-stat: nogoods=658564
%%%mzn-stat: AverageConflictSize=23.858880837701424
%%%mzn-stat: NumUnitNogoodsLearned=175
%%%mzn-stat: AverageLearnedNogoodLength=63.70809974429213
%%%mzn-stat: AverageBacktrackAmount=0
%%%mzn-stat: AverageLbd=18.647888436051772
%%%mzn-stat-end
maxleg = 207;
succ = array1d(1..100,[57, 80, 74, 92, 12, 9, 63, 28, 59, 1, 16, 40, 44, 24, 11, 58, 42, 77, 91, 15, 10, 89, 85, 7, 38, 35, 82, 19, 53, 48, 76, 87, 3, 45, 43, 64, 39, 8, 86, 73, 25, 98, 5, 20, 14, 84, 56, 78, 13, 65, 29, 62, 95, 6, 17, 94, 26, 67, 79, 88, 47, 61, 54, 69, 33, 34, 100, 30, 46, 4, 18, 97, 99, 32, 2, 49, 90, 75, 71, 23, 51, 36, 21, 81, 66, 31, 55, 37, 68, 96, 52, 83, 41, 70, 22, 93, 27, 72, 60, 50]);
% time elapsed: 276.41 s
----------
%%%mzn-stat: initTime=0.040339344
%%%mzn-stat: objective=204
%%%mzn-stat: nodes=909622
%%%mzn-stat: restarts=185
%%%mzn-stat: peakDepth=1089
%%%mzn-stat: solveTime=273.60696021
%%%mzn-stat: variables=1822
%%%mzn-stat: propagators=6402
%%%mzn-stat: failures=660359
%%%mzn-stat: propagations=288970248
%%%mzn-stat: nogoods=660359
%%%mzn-stat: AverageConflictSize=23.83595892537241
%%%mzn-stat: NumUnitNogoodsLearned=175
%%%mzn-stat: AverageLearnedNogoodLength=63.64504913236588
%%%mzn-stat: AverageBacktrackAmount=0
%%%mzn-stat: AverageLbd=18.64112853765906
%%%mzn-stat-end
maxleg = 204;
succ = array1d(1..100,[99, 80, 74, 92, 12, 9, 63, 28, 59, 1, 16, 34, 44, 7, 11, 58, 42, 77, 91, 15, 10, 89, 85, 95, 38, 35, 82, 19, 53, 48, 76, 87, 3, 45, 43, 64, 39, 8, 86, 73, 25, 98, 5, 20, 14, 6, 56, 78, 13, 65, 29, 62, 84, 24, 17, 94, 26, 67, 79, 88, 47, 61, 54, 69, 33, 40, 100, 30, 51, 4, 18, 97, 93, 32, 2, 49, 90, 75, 71, 23, 46, 36, 21, 81, 66, 31, 55, 37, 68, 96, 52, 83, 41, 70, 22, 57, 27, 72, 60, 50]);
% time elapsed: 276.97 s
----------
%%%mzn-stat: initTime=0.040339344
%%%mzn-stat: objective=202
%%%mzn-stat: nodes=911539
%%%mzn-stat: restarts=187
%%%mzn-stat: peakDepth=1089
%%%mzn-stat: solveTime=273.712528837
%%%mzn-stat: variables=1822
%%%mzn-stat: propagators=6402
%%%mzn-stat: failures=660649
%%%mzn-stat: propagations=289156354
%%%mzn-stat: nogoods=660649
%%%mzn-stat: AverageConflictSize=23.829296646176715
%%%mzn-stat: NumUnitNogoodsLearned=175
%%%mzn-stat: AverageLearnedNogoodLength=63.634857541599246
%%%mzn-stat: AverageBacktrackAmount=0
%%%mzn-stat: AverageLbd=18.641871856310992
%%%mzn-stat-end
maxleg = 202;
succ = array1d(1..100,[99, 80, 91, 92, 12, 9, 63, 28, 59, 1, 16, 34, 44, 7, 11, 58, 42, 77, 52, 15, 10, 89, 85, 95, 38, 35, 82, 19, 53, 48, 76, 87, 3, 45, 43, 64, 39, 8, 86, 73, 25, 98, 5, 20, 14, 6, 56, 78, 13, 65, 29, 62, 84, 24, 17, 94, 26, 67, 79, 88, 47, 61, 54, 69, 33, 40, 100, 30, 51, 4, 18, 97, 93, 32, 2, 49, 90, 75, 71, 23, 46, 36, 21, 81, 66, 31, 55, 37, 68, 96, 74, 83, 41, 70, 22, 57, 27, 72, 60, 50]);
% time elapsed: 277.08 s
----------
%%%mzn-stat: initTime=0.040339344
%%%mzn-stat: objective=198
%%%mzn-stat: nodes=917907
%%%mzn-stat: restarts=193
%%%mzn-stat: peakDepth=1089
%%%mzn-stat: solveTime=274.372272215
%%%mzn-stat: variables=1822
%%%mzn-stat: propagators=6402
%%%mzn-stat: failures=663063
%%%mzn-stat: propagations=290550110
%%%mzn-stat: nogoods=663063
%%%mzn-stat: AverageConflictSize=23.776282193396405
%%%mzn-stat: NumUnitNogoodsLearned=175
%%%mzn-stat: AverageLearnedNogoodLength=63.52041661199615
%%%mzn-stat: AverageBacktrackAmount=0
%%%mzn-stat: AverageLbd=18.63743113399481
%%%mzn-stat-end
maxleg = 198;
succ = array1d(1..100,[70, 80, 91, 94, 12, 9, 63, 28, 59, 4, 16, 34, 44, 7, 11, 58, 42, 77, 52, 15, 60, 89, 85, 95, 38, 35, 82, 19, 53, 48, 76, 87, 3, 45, 43, 64, 39, 8, 86, 73, 25, 98, 5, 20, 14, 6, 56, 78, 13, 65, 29, 62, 84, 24, 17, 92, 26, 67, 79, 99, 47, 61, 54, 69, 33, 40, 100, 30, 51, 10, 18, 97, 93, 32, 2, 49, 90, 75, 71, 23, 46, 36, 21, 81, 66, 31, 55, 37, 68, 96, 74, 83, 41, 88, 22, 57, 27, 72, 1, 50]);
% time elapsed: 277.75 s
----------
%%%mzn-stat: initTime=0.040339344
%%%mzn-stat: objective=197
%%%mzn-stat: nodes=923463
%%%mzn-stat: restarts=204
%%%mzn-stat: peakDepth=1089
%%%mzn-stat: solveTime=274.828934038
%%%mzn-stat: variables=1822
%%%mzn-stat: propagators=6402
%%%mzn-stat: failures=664051
%%%mzn-stat: propagations=291256624
%%%mzn-stat: nogoods=664051
%%%mzn-stat: AverageConflictSize=23.75452186654338
%%%mzn-stat: NumUnitNogoodsLearned=175
%%%mzn-stat: AverageLearnedNogoodLength=63.483470396099094
%%%mzn-stat: AverageBacktrackAmount=0
%%%mzn-stat: AverageLbd=18.64316144392524
%%%mzn-stat-end
maxleg = 197;
succ = array1d(1..100,[70, 80, 91, 94, 12, 9, 63, 32, 59, 4, 28, 34, 44, 7, 11, 58, 98, 77, 16, 15, 60, 89, 85, 95, 52, 35, 82, 19, 53, 48, 76, 74, 3, 45, 43, 64, 39, 8, 86, 73, 25, 87, 5, 20, 14, 6, 56, 78, 13, 65, 29, 47, 84, 24, 17, 92, 26, 67, 79, 99, 38, 61, 54, 69, 33, 40, 100, 30, 51, 10, 18, 97, 93, 42, 2, 49, 90, 75, 71, 23, 46, 36, 21, 81, 66, 31, 55, 37, 68, 96, 62, 83, 41, 88, 22, 57, 27, 72, 1, 50]);
% time elapsed: 278.21 s
----------
%%%mzn-stat: initTime=0.040339344
%%%mzn-stat: objective=196
%%%mzn-stat: nodes=925186
%%%mzn-stat: restarts=206
%%%mzn-stat: peakDepth=1089
%%%mzn-stat: solveTime=274.915809486
%%%mzn-stat: variables=1822
%%%mzn-stat: propagators=6402
%%%mzn-stat: failures=664179
%%%mzn-stat: propagations=291363227
%%%mzn-stat: nogoods=664179
%%%mzn-stat: AverageConflictSize=23.751240253004084
%%%mzn-stat: NumUnitNogoodsLearned=175
%%%mzn-stat: AverageLearnedNogoodLength=63.47915847986763
%%%mzn-stat: AverageBacktrackAmount=0
%%%mzn-stat: AverageLbd=18.644151651889025
%%%mzn-stat-end
maxleg = 196;
succ = array1d(1..100,[70, 80, 91, 88, 12, 9, 63, 32, 59, 4, 28, 34, 44, 7, 11, 58, 98, 77, 16, 15, 60, 89, 85, 95, 52, 35, 82, 19, 53, 48, 76, 74, 3, 45, 43, 64, 39, 8, 86, 73, 25, 87, 5, 20, 14, 6, 56, 78, 13, 65, 29, 47, 84, 24, 17, 94, 26, 67, 79, 99, 38, 61, 54, 69, 33, 40, 100, 30, 51, 10, 18, 97, 93, 42, 2, 49, 90, 75, 71, 23, 46, 36, 21, 81, 66, 31, 55, 37, 68, 96, 62, 83, 41, 92, 22, 57, 27, 72, 1, 50]);
% time elapsed: 278.30 s
----------
%%%mzn-stat: initTime=0.040339344
%%%mzn-stat: objective=195
%%%mzn-stat: nodes=926798
%%%mzn-stat: restarts=208
%%%mzn-stat: peakDepth=1089
%%%mzn-stat: solveTime=275.007386385
%%%mzn-stat: variables=1822
%%%mzn-stat: propagators=6402
%%%mzn-stat: failures=664350
%%%mzn-stat: propagations=291485072
%%%mzn-stat: nogoods=664350
%%%mzn-stat: AverageConflictSize=23.747977722585986
%%%mzn-stat: NumUnitNogoodsLearned=175
%%%mzn-stat: AverageLearnedNogoodLength=63.473748777000075
%%%mzn-stat: AverageBacktrackAmount=0
%%%mzn-stat: AverageLbd=18.645375178746143
%%%mzn-stat-end
maxleg = 195;
succ = array1d(1..100,[70, 80, 91, 88, 12, 9, 63, 32, 59, 4, 28, 34, 39, 7, 11, 58, 98, 77, 16, 15, 60, 89, 85, 95, 52, 35, 82, 19, 53, 48, 76, 74, 3, 45, 43, 64, 13, 8, 86, 73, 25, 87, 5, 20, 14, 6, 56, 78, 44, 65, 29, 47, 84, 24, 17, 94, 26, 67, 79, 99, 38, 61, 54, 69, 33, 40, 100, 30, 51, 10, 18, 97, 93, 42, 2, 49, 90, 75, 71, 23, 46, 36, 21, 81, 66, 31, 55, 37, 68, 96, 62, 83, 41, 92, 22, 57, 27, 72, 1, 50]);
% time elapsed: 278.40 s
----------
%%%mzn-stat: initTime=0.040339344
%%%mzn-stat: objective=194
%%%mzn-stat: nodes=928111
%%%mzn-stat: restarts=209
%%%mzn-stat: peakDepth=1089
%%%mzn-stat: solveTime=275.047201895
%%%mzn-stat: variables=1822
%%%mzn-stat: propagators=6402
%%%mzn-stat: failures=664402
%%%mzn-stat: propagations=291542069
%%%mzn-stat: nogoods=664402
%%%mzn-stat: AverageConflictSize=23.74665488664995
%%%mzn-stat: NumUnitNogoodsLearned=175
%%%mzn-stat: AverageLearnedNogoodLength=63.47220056532039
%%%mzn-stat: AverageBacktrackAmount=0
%%%mzn-stat: AverageLbd=18.646114852152763
%%%mzn-stat-end
maxleg = 194;
succ = array1d(1..100,[70, 80, 91, 88, 12, 9, 63, 32, 59, 4, 28, 34, 39, 7, 11, 58, 98, 77, 16, 15, 60, 89, 85, 95, 52, 35, 82, 19, 53, 48, 76, 74, 3, 45, 43, 64, 13, 8, 86, 73, 25, 87, 5, 20, 14, 6, 56, 78, 44, 65, 29, 47, 84, 24, 17, 94, 26, 67, 79, 99, 38, 61, 54, 69, 33, 40, 100, 30, 51, 10, 18, 97, 93, 42, 2, 49, 90, 75, 71, 23, 46, 36, 21, 81, 66, 31, 55, 37, 68, 96, 62, 83, 41, 92, 22, 57, 27, 72, 1, 50]);
% time elapsed: 278.44 s
----------
%%%mzn-stat: initTime=0.040339344
%%%mzn-stat: objective=193
%%%mzn-stat: nodes=929776
%%%mzn-stat: restarts=210
%%%mzn-stat: peakDepth=1089
%%%mzn-stat: solveTime=275.220132846
%%%mzn-stat: variables=1822
%%%mzn-stat: propagators=6402
%%%mzn-stat: failures=664838
%%%mzn-stat: propagations=291798731
%%%mzn-stat: nogoods=664838
%%%mzn-stat: AverageConflictSize=23.73735105394096
%%%mzn-stat: NumUnitNogoodsLearned=175
%%%mzn-stat: AverageLearnedNogoodLength=63.4591374139264
%%%mzn-stat: AverageBacktrackAmount=0
%%%mzn-stat: AverageLbd=18.645325628198147
%%%mzn-stat-end
maxleg = 193;
succ = array1d(1..100,[70, 80, 91, 92, 12, 9, 63, 32, 59, 4, 28, 34, 39, 7, 11, 58, 98, 77, 16, 15, 60, 89, 85, 95, 52, 35, 82, 19, 53, 48, 76, 74, 3, 45, 43, 64, 13, 8, 86, 73, 25, 87, 5, 20, 14, 6, 56, 78, 44, 65, 29, 47, 84, 24, 17, 88, 26, 67, 79, 99, 38, 61, 54, 69, 33, 40, 100, 30, 51, 94, 18, 97, 93, 42, 2, 49, 90, 75, 71, 23, 46, 36, 21, 81, 66, 31, 55, 10, 68, 96, 62, 83, 41, 37, 22, 57, 27, 72, 1, 50]);
% time elapsed: 278.62 s
----------
%%%mzn-stat: initTime=0.040339344
%%%mzn-stat: objective=192
%%%mzn-stat: nodes=932284
%%%mzn-stat: restarts=212
%%%mzn-stat: peakDepth=1089
%%%mzn-stat: solveTime=275.515942197
%%%mzn-stat: variables=1822
%%%mzn-stat: propagators=6402
%%%mzn-stat: failures=665544
%%%mzn-stat: propagations=292191988
%%%mzn-stat: nogoods=665544
%%%mzn-stat: AverageConflictSize=23.727326818362123
%%%mzn-stat: NumUnitNogoodsLearned=175
%%%mzn-stat: AverageLearnedNogoodLength=63.43888608416574
%%%mzn-stat: AverageBacktrackAmount=0
%%%mzn-stat: AverageLbd=18.64535778250574
%%%mzn-stat-end
maxleg = 192;
succ = array1d(1..100,[70, 73, 91, 92, 12, 9, 63, 32, 59, 4, 28, 34, 39, 7, 11, 58, 98, 77, 16, 15, 60, 95, 85, 80, 52, 35, 82, 19, 53, 48, 76, 74, 3, 45, 40, 64, 13, 8, 86, 22, 25, 87, 5, 20, 14, 6, 56, 89, 44, 65, 29, 47, 84, 24, 17, 88, 26, 67, 79, 99, 38, 61, 78, 69, 33, 43, 100, 54, 51, 94, 18, 97, 93, 42, 2, 49, 90, 75, 71, 23, 46, 36, 21, 81, 66, 31, 55, 10, 68, 96, 62, 83, 41, 37, 30, 57, 27, 72, 1, 50]);
% time elapsed: 278.92 s
----------
